64 28 39 34 82 94 82 82 50 88 88 45 53 14 74 47 93 76 33 43 22 59 49 88 76 82 98 42 70 62 93 33 57 20 88 11 60 53 14 13 89 70 26 31 47 74 89 41 20 59 
27 35 73 47 18 47 46 97 97 41 31 30 69 24 90 33 62 50 49 33 45 36 88 95 50 38 98 99 21 87 12 49 45 46 45 12 54 88 65 49 32 41 48 30 85 16 17 39 56 74 
16 78 13 96 96 64 60 72 44 69 74 16 33 69 46 18 10 94 47 10 59 12 66 35 45 48 64 54 95 78 13 43 84 31 55 31 87 22 31 90 84 84 67 71 18 97 85 20 70 50 
91 34 20 10 82 33 67 54 11 98 20 30 29 48 18 46 97 44 39 42 44 50 14 47 17 99 18 35 68 27 96 50 20 73 19 43 28 80 46 78 75 24 61 41 50 92 22 31 85 19 
1182.00
